outputs/case_69.model.txt
agent_type = False
has_practice_license = False
bank_operate_as_agent = True
fee_standard_disclosed = True
guarantee_deposit_amount = 0
fee_charged = 1
bank_operate_as_broker = False
guarantee_insurance_covered = False
authority_defined_minimum_amount = 1000000
liability_insurance_covered = False
written_analysis_report_provided = True
approved_by_authority = False
financial_and_business_management_compliant = True
application_procedures_followed = True
dismissal_reasons_not_met = True
management_rules_compliance = True
relevant_insurance_covered = False
duty_of_care_met = True
required_documents_submitted = True
minimum_guarantee_deposit = 1000000
education_and_training_compliant = True
application_conditions_met = True
bank_approved = True
other_mandatory_requirements_compliant = True
license_revocation_procedures_compliant = True
branch_establishment_conditions_met = True
duty_of_loyalty_met = True
penalty = False
broker_duties_complied = True
violation_correction_and_penalty = False
broker_report_and_fee_disclosure_compliant = True
qualification_requirements_met = True
license_and_guarantee_compliance = False
board_supervisor_manager_qualifications_met = True
bank_authority_approval = True